p edge 26 84
e 1 3
e 1 4
e 1 5
e 1 7
e 1 9
e 1 10
e 1 11
e 1 12
e 1 13
e 1 14
e 1 15
e 1 16
e 1 20
e 1 21
e 2 5
e 2 10
e 2 13
e 2 14
e 2 17
e 2 19
e 2 21
e 2 26
e 3 4
e 3 5
e 3 8
e 3 11
e 3 14
e 3 17
e 3 21
e 3 23
e 4 7
e 4 9
e 4 10
e 4 13
e 4 14
e 4 15
e 4 16
e 4 17
e 4 21
e 4 23
e 5 6
e 5 8
e 5 11
e 5 13
e 5 19
e 5 21
e 5 22
e 5 23
e 6 7
e 6 8
e 6 9
e 6 10
e 6 12
e 6 19
e 6 22
e 7 9
e 7 10
e 7 13
e 7 16
e 7 20
e 8 9
e 8 10
e 8 15
e 8 22
e 8 25
e 9 13
e 9 25
e 9 26
e 10 13
e 10 16
e 11 21
e 11 24
e 12 20
e 13 14
e 13 16
e 13 19
e 14 15
e 14 17
e 14 23
e 15 22
e 17 23
e 17 24
e 17 26
e 18 19
